Problem:    
Rows:       309
Columns:    213
Non-zeros:  940
Status:     OPTIMAL
Objective:  obj = 2.833333333 (MAXimum)

   No.   Row name   St   Activity     Lower bound   Upper bound    Marginal
------ ------------ -- ------------- ------------- ------------- -------------
     1 r.4          NU             0                           0          0.25 
     2 r.5          NU             0                           0          0.25 
     3 r.6          NU             0                           0          0.25 
     4 r.7          NU             0                           0          0.25 
     5 r.8          NU             0                           0         < eps
     6 r.9          NU             0                           0         < eps
     7 r.10         NU             0                           0         < eps
     8 r.11         NU             0                           0         < eps
     9 r.12         NU             0                           0          0.25 
    10 r.13         NU             0                           0          0.25 
    11 r.14         NU             0                           0          0.25 
    12 r.15         NU             0                           0          0.25 
    13 r.16         NU             0                           0         < eps
    14 r.17         NU             0                           0         < eps
    15 r.18         NU             0                           0         < eps
    16 r.19         NU             0                           0         < eps
    17 r.20         B              0                           0 
    18 r.21         B              0                           0 
    19 r.22         B              0                           0 
    20 r.23         B       -1.33333                           0 
    21 r.24         NU             0                           0          0.25 
    22 r.25         NU             0                           0          0.25 
    23 r.26         NU             0                           0          0.25 
    24 r.27         NU             0                           0          0.25 
    25 r.28         NU             0                           0         < eps
    26 r.29         B              0                           0 
    27 r.30         B              0                           0 
    28 r.31         B             -2                           0 
    29 r.32         NU             0                           0         < eps
    30 r.33         NU             0                           0         < eps
    31 r.34         NU             0                           0         < eps
    32 r.35         NU             0                           0         < eps
    33 r.36         NU             0                           0         < eps
    34 r.37         NU             0                           0         < eps
    35 r.38         NU             0                           0         < eps
    36 r.39         NU             0                           0         < eps
    37 r.40         B              0                           0 
    38 r.41         B              0                           0 
    39 r.42         B              0                           0 
    40 r.43         B             -2                           0 
    41 r.44         NU             0                           0          0.25 
    42 r.45         NU             0                           0          0.25 
    43 r.46         NU             0                           0          0.25 
    44 r.47         NU             0                           0          0.25 
    45 r.48         B      -0.333333                           0 
    46 r.49         NS             0             0             =          0.25 
    47 r.50         B              0                           0 
    48 r.51         B       -1.66667                           0 
    49 r.52         NU             0                           0         < eps
    50 r.53         NU             0                           0      0.208333 
    51 r.54         NU             0                           0         < eps
    52 r.55         B             -1                           0 
    53 r.56         B              0                           0 
    54 r.57         B              0                           0 
    55 r.58         B              0                           0 
    56 r.59         B             -2                           0 
    57 r.60         NU             0                           0          0.25 
    58 r.61         NU             0                           0         < eps
    59 r.62         NU             0                           0          0.25 
    60 r.63         NU             0                           0          0.25 
    61 r.64         NU             0                           0         < eps
    62 r.65         NU             0                           0         < eps
    63 r.66         NU             0                           0         < eps
    64 r.67         NU             0                           0         < eps
    65 r.68         NU             0                           0         < eps
    66 r.69         B              0             0             = 
    67 r.70         NU             0                           0         < eps
    68 r.71         NU             0                           0         < eps
    69 r.72         B      -0.333333                           0 
    70 r.73         B              0                           0 
    71 r.74         NU             0                           0         < eps
    72 r.75         NU             0                           0         < eps
    73 r.76         NU             0                           0      0.166667 
    74 r.77         NU             0                           0         < eps
    75 r.78         NU             0                           0      0.166667 
    76 r.79         B              0                           0 
    77 r.80         B              0                           0 
    78 r.81         B              0                           0 
    79 r.82         B              0                           0 
    80 r.83         NU             0                           0         < eps
    81 r.84         NU             0                           0      0.166667 
    82 r.85         NU             0                           0         < eps
    83 r.86         NU             0                           0      0.166667 
    84 r.87         NU             0                           0      0.166667 
    85 r.88         B              0                           0 
    86 r.89         B              0                           0 
    87 r.90         NS             0             0             =          0.25 
    88 r.91         NU             0                           0         < eps
    89 r.92         NU             0                           0     0.0833333 
    90 r.93         B              0                           0 
    91 r.94         NU             0                           0     0.0833333 
    92 r.95         NU             0                           0          0.25 
    93 r.96         NU             0                           0         < eps
    94 r.97         B              0                           0 
    95 r.98         B              0                           0 
    96 r.99         B      -0.333333                           0 
    97 r.100        NU             0                           0         < eps
    98 r.101        B              0                           0 
    99 r.102        NU             0                           0         < eps
   100 r.103        NU             0                           0         < eps
   101 r.104        B      -0.333333                           0 
   102 r.105        B              0                           0 
   103 r.106        NU             0                           0         < eps
   104 r.107        NS             0             0             =          0.25 
   105 r.108        NU             0                           0     0.0833333 
   106 r.109        B              0                           0 
   107 r.110        NU             0                           0     0.0833333 
   108 r.111        NU             0                           0          0.25 
   109 r.112        NU             0                           0         < eps
   110 r.113        B              0                           0 
   111 r.114        NU             0                           0         < eps
   112 r.115        NU             0                           0         < eps
   113 r.116        NU             0                           0     0.0833333 
   114 r.117        B              0                           0 
   115 r.118        NU             0                           0     0.0833333 
   116 r.119        B              0                           0 
   117 r.120        B              0                           0 
   118 r.121        B              0                           0 
   119 r.122        B              0                           0 
   120 r.123        B              0                           0 
   121 r.124        NU             0                           0     0.0833333 
   122 r.125        B              0                           0 
   123 r.126        NU             0                           0     0.0833333 
   124 r.127        B      -0.666667                           0 
   125 r.128        NU             0                           0     0.0833333 
   126 r.129        B              0                           0 
   127 r.130        NU             0                           0     0.0833333 
   128 r.131        B       -1.33333                           0 
   129 r.132        NS             0             0             =          0.25 
   130 r.133        B              0                           0 
   131 r.134        NU             0                           0     0.0833333 
   132 r.135        NU             0                           0     0.0833333 
   133 r.136        B             -2                           0 
   134 r.137        B              0                           0 
   135 r.138        NU             0                           0      0.166667 
   136 r.139        NU             0                           0     0.0833333 
   137 r.140        B              0                           0 
   138 r.141        B              0                           0 
   139 r.142        NU             0                           0     0.0833333 
   140 r.143        NU             0                           0     0.0833333 
   141 r.144        B              0                           0 
   142 r.145        B              0                           0 
   143 r.146        B              0                           0 
   144 r.147        B             -2                           0 
   145 r.148        B              0                           0 
   146 r.149        B              0                           0 
   147 r.150        B              0                           0 
   148 r.151        B             -2                           0 
   149 r.152        B              0                           0 
   150 r.153        B              0                           0 
   151 r.154        B              0                           0 
   152 r.155        B             -2                           0 
   153 r.156        B              0                           0 
   154 r.157        B              0                           0 
   155 r.158        B              0                           0 
   156 r.159        B             -2                           0 
   157 r.160        NU             0                           0         < eps
   158 r.161        B              0                           0 
   159 r.162        B              0                           0 
   160 r.163        B      -0.666667                           0 
   161 r.164        NU             0                           0         < eps
   162 r.165        B              0                           0 
   163 r.166        B              0                           0 
   164 r.167        B             -2                           0 
   165 r.168        NU             0                           0         < eps
   166 r.169        NU             0                           0         < eps
   167 r.170        NU             0                           0         < eps
   168 r.171        B              0                           0 
   169 r.172        B              0                           0 
   170 r.173        B              0                           0 
   171 r.174        B              0                           0 
   172 r.175        B             -2                           0 
   173 r.176        B              0                           0 
   174 r.177        B              0                           0 
   175 r.178        B              0                           0 
   176 r.179        B             -2                           0 
   177 r.180        NU             0                           0         < eps
   178 r.181        B              0                           0 
   179 r.182        B              0             0             = 
   180 r.183        NU             0                           0         < eps
   181 r.184        B              0                           0 
   182 r.185        B              0                           0 
   183 r.186        B              0                           0 
   184 r.187        B             -2                           0 
   185 r.188        NU             0                           0         < eps
   186 r.189        NU             0                           0          0.25 
   187 r.190        NU             0                           0         < eps
   188 r.191        NU             0                           0         < eps
   189 r.192        B              0                           0 
   190 r.193        NU             0                           0      0.208333 
   191 r.194        B              0                           0 
   192 r.195        B             -1                           0 
   193 r.196        NU             0                           0         < eps
   194 r.197        NU             0                           0         < eps
   195 r.198        NU             0                           0         < eps
   196 r.199        NU             0                           0         < eps
   197 r.200        B              0                           0 
   198 r.201        B              0                           0 
   199 r.202        B              0                           0 
   200 r.203        B             -2                           0 
   201 r.204        B              0                           0 
   202 r.205        B              0                           0 
   203 r.206        B              0                           0 
   204 r.207        B             -2                           0 
   205 r.208        B      -0.333333                           0 
   206 r.209        B              0                           0 
   207 r.210        B              0                           0 
   208 r.211        B       -1.66667                           0 
   209 r.212        NU             0                           0         < eps
   210 r.213        B              0                           0 
   211 r.214        B              0                           0 
   212 r.215        B       -1.66667                           0 
   213 r.216        B              0                           0 
   214 r.217        B              0                           0 
   215 r.218        B              0                           0 
   216 r.219        B             -2                           0 
   217 r.220        B              0                           0 
   218 r.221        B              0                           0 
   219 r.222        B              0                           0 
   220 r.223        B             -2                           0 
   221 r.224        B              0                           0 
   222 r.225        B              0                           0 
   223 r.226        B             -2                           0 
   224 r.227        NU             0                           0      0.166667 
   225 r.228        NU             0                           0         < eps
   226 r.229        B              0                           0 
   227 r.230        NU             0                           0          0.25 
   228 r.231        NU             0                           0         < eps
   229 r.232        B              0                           0 
   230 r.233        B              0                           0 
   231 r.234        B              0                           0 
   232 r.235        B             -2                           0 
   233 r.236        B      -0.333333                           0 
   234 r.237        B              0                           0 
   235 r.238        B              0                           0 
   236 r.239        B       -1.33333                           0 
   237 r.240        B      -0.333333                           0 
   238 r.241        B              0                           0 
   239 r.242        B              0                           0 
   240 r.243        B              0             0             = 
   241 r.244        B      -0.333333                           0 
   242 r.245        B              0                           0 
   243 r.246        B              0                           0 
   244 r.247        NU             0                           0          0.25 
   245 r.248        B      -0.666667                           0 
   246 r.249        B              0                           0 
   247 r.250        B              0                           0 
   248 r.251        B       -1.33333                           0 
   249 r.252        B      -0.666667                           0 
   250 r.253        B              0                           0 
   251 r.254        B              0                           0 
   252 r.255        B       -1.33333                           0 
   253 r.256        B       -1.33333                           0 
   254 r.257        B              0                           0 
   255 r.258        B              0                           0 
   256 r.259        B      -0.666667                           0 
   257 r.260        B       -1.33333                           0 
   258 r.261        B              0                           0 
   259 r.262        B              0                           0 
   260 r.263        B      -0.666667                           0 
   261 r.264        B       -1.33333                           0 
   262 r.265        B              0                           0 
   263 r.266        B              0                           0 
   264 r.267        NU             0                           0         < eps
   265 r.268        B              0             0             = 
   266 r.269        B              0                           0 
   267 r.270        B              0                           0 
   268 r.271        NU             0                           0         < eps
   269 r.272        NU             0                           0      0.166667 
   270 r.273        B              0                           0 
   271 r.274        NU             0                           0         < eps
   272 r.275        NU             0                           0     0.0833333 
   273 r.276        NU             0                           0      0.166667 
   274 r.277        B              0                           0 
   275 r.278        NU             0                           0     0.0833333 
   276 r.279        NU             0                           0     0.0833333 
   277 r.280        NU             0                           0      0.166667 
   278 r.281        B              0                           0 
   279 r.282        B             -2                           0 
   280 r.283        NU             0                           0     0.0833333 
   281 r.284        NS             1             1             =          0.25 
   282 r.285        NS             1             1             =          0.25 
   283 r.286        NS             1             1             =         < eps
   284 r.287        NS             1             1             =         < eps
   285 r.288        NS             1             1             =          0.25 
   286 r.289        NS             1             1             =          0.25 
   287 r.290        NS             1             1             =         < eps
   288 r.291        NS             1             1             =         < eps
   289 r.292        NS             1             1             =         < eps
   290 r.293        NS             1             1             =         < eps
   291 r.294        NS             1             1             =         < eps
   292 r.295        NS             1             1             =      0.666667 
   293 r.296        B              1             1             = 
   294 r.297        NS             1             1             =         < eps
   295 r.298        NS             1             1             =         < eps
   296 r.299        NS             1             1             =         < eps
   297 r.300        B              1             1             = 
   298 r.301        B              1             1             = 
   299 r.302        NS             1             1             =         < eps
   300 r.303        NS             1             1             =          0.25 
   301 r.304        B              1             1             = 
   302 r.305        NS             1             1             =          0.25 
   303 r.306        B              1             1             = 
   304 r.307        NS             1             1             =          0.25 
   305 r.308        B              1             1             = 
   306 r.309        NS             1             1             =      0.166667 
   307 r.310        B              1             1             = 
   308 r.311        NS             1             1             =     0.0833333 
   309 r.312        NS             1             1             =      0.166667 

   No. Column name  St   Activity     Lower bound   Upper bound    Marginal
------ ------------ -- ------------- ------------- ------------- -------------
     1 V(0,27)      B              2             0               
     2 V(0,10)      B              0             0               
     3 V(0,15)      B              2             0               
     4 V(0,18)      B        7.33333             0               
     5 F(0,27)      NL             0             0                       < eps
     6 F(0,10)      NL             0             0                       < eps
     7 F(0,15)      NL             0             0                       < eps
     8 F(0,18)      B              1                             
     9 V(1,27)      B              2             0               
    10 V(1,10)      B              0             0               
    11 V(1,15)      B              2             0               
    12 V(1,18)      B        6.33333             0               
    13 V(2,27)      B              2             0               
    14 V(2,10)      B              0             0               
    15 V(2,15)      B              2             0               
    16 V(2,18)      B        6.33333             0               
    17 F(1,27)      B              0             0               
    18 F(1,10)      B              0             0               
    19 F(1,15)      B              0             0               
    20 F(1,18)      B              1                             
    21 V(4,27)      B              2             0               
    22 V(4,10)      B              0             0               
    23 V(4,15)      B              2             0               
    24 V(4,18)      B        5.33333             0               
    25 F(2,27)      NL             0             0                       < eps
    26 F(2,10)      NL             0             0                       < eps
    27 F(2,15)      NL             0             0                       < eps
    28 F(2,18)      B              1                             
    29 V(6,27)      B              2             0               
    30 V(6,10)      B              0             0               
    31 V(6,15)      B              2             0               
    32 V(6,18)      B        5.33333             0               
    33 V(3,27)      B              2             0               
    34 F(3,27)      NL             0             0                       < eps
    35 F(3,10)      NL             0             0                       < eps
    36 F(3,15)      NL             0             0                       < eps
    37 F(3,18)      B              1                             
    38 V(7,27)      B              2             0               
    39 V(3,10)      NL             0             0                       < eps
    40 V(7,10)      NL             0             0                       < eps
    41 V(3,15)      NL             0             0                       < eps
    42 V(7,15)      NL             0             0                       < eps
    43 V(3,18)      NL             0             0                       < eps
    44 V(7,18)      B       0.333333             0               
    45 F(4,27)      NL             0             0                       < eps
    46 F(4,10)      NL             0             0                       < eps
    47 F(4,15)      NL             0             0                       < eps
    48 F(4,18)      B              1                             
    49 V(5,27)      B              2             0               
    50 V(5,10)      B              0             0               
    51 V(5,15)      B              2             0               
    52 V(5,18)      B        4.33333             0               
    53 F(5,27)      B              0             0               
    54 F(5,10)      B              0             0               
    55 F(5,15)      B              0             0               
    56 F(5,18)      B              1                             
    57 F(6,27)      B              0             0               
    58 F(6,10)      NL             0             0                       < eps
    59 F(6,15)      NL             0             0                       < eps
    60 F(6,18)      B              1                             
    61 V(13,27)     B              2             0               
    62 V(13,10)     B              0             0               
    63 V(13,15)     B              2             0               
    64 V(13,18)     B        4.33333             0               
    65 F(13,27)     NL             0             0                       < eps
    66 F(13,10)     NL             0             0                       < eps
    67 F(13,15)     NL             0             0                       < eps
    68 F(13,18)     B              1                             
    69 V(14,27)     B              2             0               
    70 V(14,10)     B              0             0               
    71 V(14,15)     B              2             0               
    72 V(14,18)     B        3.33333             0               
    73 F(7,27)      NL             0             0                       < eps
    74 F(7,10)      NL             0             0                       < eps
    75 F(7,15)      NL             0             0                       < eps
    76 F(7,18)      B              1                             
    77 V(15,27)     B              2             0               
    78 V(15,10)     NL             0             0                       < eps
    79 V(15,15)     B              0             0               
    80 V(15,18)     B        1.33333             0               
    81 V(11,27)     B              2             0               
    82 V(11,10)     B              0             0               
    83 V(11,15)     B              2             0               
    84 V(11,18)     B        3.33333             0               
    85 V(10,27)     B              2             0               
    86 F(10,27)     B       0.333333             0               
    87 F(10,10)     NL             0             0                       < eps
    88 F(10,15)     NL             0             0                       < eps
    89 F(10,18)     B       0.666667                             
    90 V(10,10)     B              0             0               
    91 V(10,15)     B              2             0               
    92 V(10,18)     B        2.33333             0               
    93 F(S0,27)     B              0             0               
    94 F(S0,10)     B              0             0               
    95 F(S0,15)     B              0             0               
    96 F(S0,18)     B              1             0               
    97 V(12,27)     B              2             0               
    98 V(12,10)     B              0             0               
    99 V(12,15)     B              2             0               
   100 V(12,18)     B        3.33333             0               
   101 V(16,27)     B              2             0               
   102 V(16,10)     B              0             0               
   103 V(16,15)     B              2             0               
   104 V(16,18)     B        2.33333             0               
   105 V(17,27)     B              2             0               
   106 V(17,10)     B              0             0               
   107 V(17,15)     B              2             0               
   108 V(17,18)     B        2.33333             0               
   109 V(8,27)      B        1.66667             0               
   110 V(8,15)      B              2             0               
   111 V(8,18)      B        1.66667             0               
   112 F(8,27)      NL             0             0                       < eps
   113 F(8,10)      NL             0             0                       < eps
   114 F(8,15)      NL             0             0                       < eps
   115 F(8,18)      B              1                             
   116 V(9,27)      B              2             0               
   117 V(8,10)      NL             0             0                       < eps
   118 V(9,10)      NL             0             0                       < eps
   119 V(9,15)      B              2             0               
   120 V(9,18)      B       0.666667             0               
   121 V(20,27)     B              2             0               
   122 V(20,10)     B              0             0               
   123 V(20,15)     B              2             0               
   124 V(20,18)     B        1.33333             0               
   125 V(23,27)     B              2             0               
   126 V(23,10)     B              0             0               
   127 V(23,15)     B              2             0               
   128 V(23,18)     B       0.333333             0               
   129 F(15,27)     B              0             0               
   130 F(15,10)     NL             0             0                       < eps
   131 F(15,15)     NL             0             0                       < eps
   132 F(15,18)     B              1                             
   133 V(19,27)     B              2             0               
   134 V(19,10)     NL             0             0                       < eps
   135 V(19,15)     B              2             0               
   136 V(19,18)     B        1.33333             0               
   137 F(19,27)     NL             0             0                   -0.166667 
   138 F(19,10)     NL             0             0                       -0.25 
   139 F(19,15)     NL             0             0                   -0.166667 
   140 F(19,18)     B              1                             
   141 F(9,27)      B       0.333333             0               
   142 F(9,10)      NL             0             0                       < eps
   143 F(9,15)      NL             0             0                       < eps
   144 F(9,18)      B       0.666667                             
   145 V(18,27)     B        1.66667             0               
   146 V(18,10)     NL             0             0                       < eps
   147 V(18,15)     B              2             0               
   148 V(18,18)     B              0             0               
   149 F(18,27)     NL             0             0                       < eps
   150 F(18,10)     NL             0             0                       < eps
   151 F(18,15)     B              0             0               
   152 F(18,18)     B              1                             
   153 V(21,27)     B              2             0               
   154 V(21,10)     NL             0             0                       < eps
   155 V(21,15)     B              2             0               
   156 V(21,18)     B       0.333333             0               
   157 V(22,27)     B              2             0               
   158 V(22,10)     NL             0             0                       < eps
   159 V(22,15)     B              2             0               
   160 V(22,18)     B       0.333333             0               
   161 F(S1,27)     B       0.666667             0               
   162 F(S1,10)     NL             0             0                       -0.25 
   163 F(S1,15)     B              0             0               
   164 F(S1,18)     B       0.333333             0               
   165 V(24,27)     B        1.33333             0               
   166 V(24,10)     NL             0             0                       < eps
   167 V(24,15)     B              2             0               
   168 V(24,18)     B              0             0               
   169 V(26,27)     B       0.666667             0               
   170 V(26,10)     NL             0             0                       < eps
   171 V(26,15)     B              2             0               
   172 V(26,18)     B       0.333333             0               
   173 V(27,27)     B              0             0               
   174 V(27,10)     NL             0             0                       < eps
   175 V(27,15)     B              2             0               
   176 V(27,18)     B        1.33333             0               
   177 F(27,27)     NL             0             0                  -0.0833333 
   178 F(27,10)     NL             0             0                  -0.0833333 
   179 F(27,15)     B              0             0               
   180 F(27,18)     B              1                             
   181 V(28,10)     NL             0             0                       < eps
   182 V(28,15)     B              2             0               
   183 V(28,18)     B       0.333333             0               
   184 V(28,27)     B              2             0               
   185 F(28,27)     B              2             0               
   186 F(28,10)     NL             0             0                   -0.166667 
   187 F(28,15)     B              0             0               
   188 F(28,18)     B             -1                             
   189 V(25,27)     B              2             0               
   190 V(25,10)     NL             0             0                       < eps
   191 V(25,15)     B              2             0               
   192 V(25,18)     B        1.33333             0               
   193 F(25,27)     B              0             0               
   194 F(25,10)     NL             0             0                   -0.166667 
   195 F(25,15)     NL             0             0                       < eps
   196 F(25,18)     B              1                             
   197 F(14,27)     NL             0             0                       < eps
   198 F(14,10)     NL             0             0                       < eps
   199 F(14,15)     NL             0             0                       < eps
   200 F(14,18)     B              1                             
   201 F(23,27)     NL             0             0                  -0.0833333 
   202 F(23,10)     NL             0             0                       -0.25 
   203 F(23,15)     B              2             0               
   204 F(23,18)     B             -1                             
   205 F(11,18)     NF             0                                     < eps
   206 F(12,18)     NF             0                                     < eps
   207 F(16,18)     NF             0                                     < eps
   208 F(17,18)     NF             0                                     < eps
   209 F(20,18)     NF             0                                     < eps
   210 F(21,18)     NF             0                                     < eps
   211 F(22,18)     NF             0                                     < eps
   212 F(24,18)     NF             0                                     < eps
   213 F(26,18)     NF             0                                     < eps

Karush-Kuhn-Tucker optimality conditions:

KKT.PE: max.abs.err = 1.11e-15 on row 136
        max.rel.err = 3.03e-16 on row 136
        High quality

KKT.PB: max.abs.err = 6.66e-16 on row 85
        max.rel.err = 6.66e-16 on row 85
        High quality

KKT.DE: max.abs.err = 2.22e-16 on column 95
        max.rel.err = 1.67e-16 on column 124
        High quality

KKT.DB: max.abs.err = 2.78e-16 on row 49
        max.rel.err = 2.78e-16 on row 49
        High quality

End of output
